proyfinal/src/viki/013/andrea/andrea-localstore/experimentInOfficeAgust.take6/worker_1/175bbfd2-03b1-4eb6-8d62-269712f945c5.als.cnf.out
Reading from standard input... Use '--help' for help.
============================[ Problem Statistics ]=============================
|                                                                             |
|  Number of variables:         87638                                         |
|  Number of clauses:          161767                                         |
|  Parse time:                   0.04 s                                       |
|                                                                             |
============================[ Search Statistics ]==============================
| Conflicts |          ORIGINAL         |          LEARNT          | Progress |
|           |    Vars  Clauses Literals |    Limit  Clauses Lit/Cl |          |
===============================================================================
|       100 |   65261   115596   288579 |    42385      100     20 | 25.533 % |
|       250 |   65261   115596   288579 |    46623      250     35 | 25.533 % |
|       475 |   56478    89004   223114 |    51286      468     77 | 35.555 % |
|       812 |   56453    88873   222827 |    56414      799     59 | 35.584 % |
|      1318 |   56453    88873   222827 |    62056     1305     66 | 35.584 % |
|      2077 |   56388    88617   222235 |    68261     2061     70 | 35.658 % |
|      3216 |   56229    88023   220843 |    75087     3194     69 | 35.839 % |
|      4924 |   55849    86726   217627 |    82596     4883     63 | 36.273 % |
|      7486 |   55759    86367   216754 |    90856     7443     64 | 36.376 % |
|     11330 |   55521    85424   214580 |    99942    11098     73 | 36.647 % |
|     17096 |   55330    84655   212717 |   109936    16723     79 | 36.865 % |
===============================================================================
restarts              : 63
conflicts             : 19240          (6686 /sec)
decisions             : 80298          (0.00 % random) (27903 /sec)
propagations          : 31551044       (10963919 /sec)
conflict literals     : 1513541        (45.60 % deleted)
Memory used           : 43.71 MB
CPU time              : 2.87772 s

INDETERMINATE
